\ LP format - for model browsing. Use MPS format to capture full model detail.
Minimize
  0 contract_3_0
Subject To
 R0: node_0_0 = 1
 GC0: node_0_0 = 1 -> contract_3_0 <= 2.306947677129054
 GC1: node_0_0 = 0 -> contract_3_0 >= 2.307047677129054
Bounds
 contract_3_0 <= 1
Binaries
 node_0_0
End
